solution status: optimal solution found
objective value:                 -2.73137755254173e-14
X#1#2#9                                             1 	(obj:0)
X#1#3#17                                            1 	(obj:0)
X#1#4#15                             1.00000000000003 	(obj:0)
X#1#5#2                              1.00000000000001 	(obj:0)
X#1#6#6                                             1 	(obj:0)
X#1#7#13                            0.999999999999994 	(obj:0)
X#1#8#8                                             1 	(obj:0)
X#1#9#11                            0.999999999999998 	(obj:0)
X#1#10#4                            0.999999999999999 	(obj:0)
X#2#1#10                                            1 	(obj:0)
X#2#3#2                                             1 	(obj:0)
X#2#4#3                              1.00000000000003 	(obj:0)
X#2#5#5                             0.999999999999992 	(obj:0)
X#2#6#8                                             1 	(obj:0)
X#2#7#16                            0.999999999999999 	(obj:0)
X#2#8#11                                            1 	(obj:0)
X#2#9#14                             1.00000000000002 	(obj:0)
X#2#10#17                           0.999999999999999 	(obj:0)
X#3#1#7                                             1 	(obj:0)
X#3#2#12                                            1 	(obj:0)
X#3#4#18                                            1 	(obj:0)
X#3#5#10                             1.00000000000001 	(obj:0)
X#3#6#1                                             1 	(obj:0)
X#3#7#4                             0.999999999999994 	(obj:0)
X#3#8#13                            0.999999999999999 	(obj:0)
X#3#9#5                                             1 	(obj:0)
X#3#10#16                           0.999999999999997 	(obj:0)
X#4#1#5                              1.00000000000003 	(obj:0)
X#4#2#13                             1.00000000000003 	(obj:0)
X#4#3#8                                             1 	(obj:0)
X#4#5#16                                            1 	(obj:0)
X#4#6#4                              1.00000000000002 	(obj:0)
X#4#7#12                             1.00000000000002 	(obj:0)
X#4#8#10                             1.00000000000001 	(obj:0)
X#4#9#17                            0.999999999999997 	(obj:0)
X#4#10#1                                            1 	(obj:0)
X#5#1#12                             1.00000000000001 	(obj:0)
X#5#2#15                            0.999999999999992 	(obj:0)
X#5#3#9                              1.00000000000001 	(obj:0)
X#5#4#6                                             1 	(obj:0)
X#5#6#17                                            1 	(obj:0)
X#5#7#1                              1.00000000000001 	(obj:0)
X#5#8#4                                             1 	(obj:0)
X#5#9#8                              1.00000000000001 	(obj:0)
X#5#10#13                                           1 	(obj:0)
X#6#1#16                                            1 	(obj:0)
X#6#2#18                                            1 	(obj:0)
X#6#3#11                                            1 	(obj:0)
X#6#4#14                             1.00000000000002 	(obj:0)
X#6#5#7                                             1 	(obj:0)
X#6#7#5                              1.00000000000001 	(obj:0)
X#6#8#2                                             1 	(obj:0)
X#6#9#3                              1.00000000000003 	(obj:0)
X#6#10#9                             1.00000000000001 	(obj:0)
X#7#1#3                             0.999999999999994 	(obj:0)
X#7#2#6                             0.999999999999999 	(obj:0)
X#7#3#14                            0.999999999999994 	(obj:0)
X#7#4#2                              1.00000000000002 	(obj:0)
X#7#5#11                             1.00000000000001 	(obj:0)
X#7#6#15                             1.00000000000001 	(obj:0)
X#7#8#17                            0.999999999999998 	(obj:0)
X#7#9#10                            0.999999999999998 	(obj:0)
X#7#10#8                                            1 	(obj:0)
X#8#1#18                                            1 	(obj:0)
X#8#2#1                                             1 	(obj:0)
X#8#3#3                             0.999999999999999 	(obj:0)
X#8#4#9                              1.00000000000001 	(obj:0)
X#8#5#14                                            1 	(obj:0)
X#8#6#12                                            1 	(obj:0)
X#8#7#7                             0.999999999999998 	(obj:0)
X#8#9#16                                            1 	(obj:0)
X#8#10#5                             1.00000000000001 	(obj:0)
X#9#1#1                             0.999999999999998 	(obj:0)
X#9#2#4                              1.00000000000002 	(obj:0)
X#9#3#15                                            1 	(obj:0)
X#9#4#7                             0.999999999999997 	(obj:0)
X#9#5#18                             1.00000000000001 	(obj:0)
X#9#6#13                             1.00000000000003 	(obj:0)
X#9#7#9                             0.999999999999998 	(obj:0)
X#9#8#6                                             1 	(obj:0)
X#9#10#12                           0.999999999999998 	(obj:0)
X#10#1#14                           0.999999999999999 	(obj:0)
X#10#2#7                            0.999999999999999 	(obj:0)
X#10#3#6                            0.999999999999997 	(obj:0)
X#10#4#11                                           1 	(obj:0)
X#10#5#3                                            1 	(obj:0)
X#10#6#10                            1.00000000000001 	(obj:0)
X#10#7#18                                           1 	(obj:0)
X#10#8#15                            1.00000000000001 	(obj:0)
X#10#9#2                            0.999999999999998 	(obj:0)
Y#1#9                                               1 	(obj:0)
Y#1#11                                              1 	(obj:0)
Y#1#13                                              1 	(obj:0)
Y#1#15                                              1 	(obj:0)
Y#1#17                                              1 	(obj:0)
Y#2#3                               0.999999999999998 	(obj:0)
Y#2#5                                               1 	(obj:0)
Y#2#11                              0.999999999999997 	(obj:0)
Y#2#17                               1.00000000000001 	(obj:0)
Y#3#1                                               1 	(obj:0)
Y#3#5                                               1 	(obj:0)
Y#3#7                                               1 	(obj:0)
Y#3#13                                              1 	(obj:0)
Y#4#1                                               1 	(obj:0)
Y#4#5                                               1 	(obj:0)
Y#4#13                                              1 	(obj:0)
Y#4#17                                              1 	(obj:0)
Y#5#1                                               1 	(obj:0)
Y#5#9                                               1 	(obj:0)
Y#5#13                                              1 	(obj:0)
Y#5#15                              0.999999999999992 	(obj:0)
Y#5#17                               1.00000000000001 	(obj:0)
Y#6#3                                1.00000000000001 	(obj:0)
Y#6#5                                               1 	(obj:0)
Y#6#7                                               1 	(obj:0)
Y#6#9                                               1 	(obj:0)
Y#6#11                               0.99999999999999 	(obj:0)
Y#7#3                                               1 	(obj:0)
Y#7#11                               1.00000000000001 	(obj:0)
Y#7#15                              0.999999999999994 	(obj:0)
Y#7#17                                              1 	(obj:0)
Y#8#1                                               1 	(obj:0)
Y#8#3                                1.00000000000001 	(obj:0)
Y#8#5                                               1 	(obj:0)
Y#8#7                               0.999999999999998 	(obj:0)
Y#8#9                                               1 	(obj:0)
Y#9#1                                               1 	(obj:0)
Y#9#7                               0.999999999999997 	(obj:0)
Y#9#9                               0.999999999999998 	(obj:0)
Y#9#13                                              1 	(obj:0)
Y#9#15                                              1 	(obj:0)
Y#10#3                              0.999999999999999 	(obj:0)
Y#10#7                              0.999999999999999 	(obj:0)
Y#10#11                                             1 	(obj:0)
Y#10#15                              1.00000000000001 	(obj:0)
